NAME: instance_398
TYPE: TSP
DIMENSION: 20
EDGE_WEIGHT_TYPE: EUC_2D
NODE_COORD_SECTION
0 46.96 79.25
1 14.00 92.19
2 87.40 62.72
3 86.51 68.07
4 17.45 70.28
5 38.22 44.83
6 65.05 56.94
7 85.96 22.71
8 18.68 19.09
9 33.96 87.93
10 95.69 57.89
11 7.33 6.07
12 73.82 89.95
13 14.60 51.05
14 48.58 21.83
15 36.10 88.69
16 14.61 25.24
17 95.62 97.89
18 75.47 99.14
19 63.24 99.63
EOF
